sat
(
  (define-fun StorageProv1 () Int
    1000)
  (define-fun C2_VM5 () Int
    0)
  (define-fun C1_VM4 () Int
    0)
  (define-fun PriceProv2 () Int
    402)
  (define-fun PriceProv6 () Int
    402)
  (define-fun C5_VM6 () Int
    1)
  (define-fun C5_VM4 () Int
    0)
  (define-fun ProcProv1 () Int
    4)
  (define-fun PriceProv1 () Int
    379)
  (define-fun VM4Type () Int
    0)
  (define-fun ProcProv4 () Int
    3)
  (define-fun MemProv1 () Int
    30500)
  (define-fun C3_VM4 () Int
    0)
  (define-fun StorageProv6 () Int
    2000)
  (define-fun C5_VM3 () Int
    1)
  (define-fun C3_VM2 () Int
    0)
  (define-fun VM6Type () Int
    13)
  (define-fun VM1Type () Int
    15)
  (define-fun C1_VM2 () Int
    0)
  (define-fun MemProv3 () Int
    68400)
  (define-fun MemProv4 () Int
    30500)
  (define-fun ProcProv5 () Int
    8)
  (define-fun MemProv2 () Int
    15000)
  (define-fun ProcProv6 () Int
    4)
  (define-fun C4_VM6 () Int
    0)
  (define-fun C4_VM3 () Int
    0)
  (define-fun StorageProv3 () Int
    2000)
  (define-fun StorageProv4 () Int
    1001)
  (define-fun C3_VM3 () Int
    1)
  (define-fun C5_VM2 () Int
    1)
  (define-fun MemProv5 () Int
    68400)
  (define-fun MemProv6 () Int
    15000)
  (define-fun C4_VM4 () Int
    0)
  (define-fun C1_VM6 () Int
    0)
  (define-fun ProcProv3 () Int
    8)
  (define-fun C3_VM1 () Int
    0)
  (define-fun C4_VM2 () Int
    0)
  (define-fun StorageProv2 () Int
    2000)
  (define-fun C2_VM3 () Int
    0)
  (define-fun PriceProv5 () Int
    1288)
  (define-fun C1_VM5 () Int
    0)
  (define-fun VM5Type () Int
    12)
  (define-fun C3_VM6 () Int
    0)
  (define-fun C4_VM5 () Int
    1)
  (define-fun StorageProv5 () Int
    2000)
  (define-fun VM2Type () Int
    13)
  (define-fun PriceProv4 () Int
    0)
  (define-fun VM3Type () Int
    12)
  (define-fun ProcProv2 () Int
    4)
  (define-fun C5_VM1 () Int
    0)
  (define-fun C4_VM1 () Int
    0)
  (define-fun C2_VM6 () Int
    1)
  (define-fun C1_VM3 () Int
    0)
  (define-fun C2_VM2 () Int
    1)
  (define-fun C3_VM5 () Int
    0)
  (define-fun C5_VM5 () Int
    0)
  (define-fun C2_VM4 () Int
    0)
  (define-fun PriceProv3 () Int
    1288)
  (define-fun C2_VM1 () Int
    0)
  (define-fun C1_VM1 () Int
    1)
)
(objectives
 ((+ 0 PriceProv1 PriceProv2 PriceProv3 PriceProv4 PriceProv5 PriceProv6) 3759)
)
(:added-eqs                   132192
 :arith-eq-adapter            7255
 :arith-bound-propagations-lp 18770
 :arith-conflicts             207
 :arith-diseq                 205472
 :arith-fixed-eqs             2345
 :arith-lower                 223048
 :arith-make-feasible         18446
 :arith-max-columns           125
 :arith-max-rows              20
 :arith-upper                 223654
 :binary-propagations         777181
 :conflicts                   4749
 :decisions                   27885
 :del-clause                  29465
 :final-checks                129
 :max-memory                  43.32
 :memory                      43.32
 :minimized-lits              28638
 :mk-bool-var                 15596
 :mk-clause                   30528
 :mk-clause-binary            2891
 :num-allocs                  21989734
 :num-checks                  100
 :pb-conflicts                884
 :pb-predicates               234
 :pb-propagations             5573
 :pb-resolves                 868
 :propagations                1462454
 :restarts                    38
 :rlimit-count                6864798
 :solve-eqs-elim-vars         1
 :solve-eqs-steps             10
 :time                        0.30
 :total-time                  0.30)
